NAME: X237-FSMF
COMMENT: Generated by Uchoa, Pecin, Pessoa, Poggi, Subramanian, and Vidal (2013). Modified by Sadykov, Pessoa and Uchoa (2017). Converted to PyVRP's VRPLIB dialect.
TYPE: HFVRP
DIMENSION: 237
VEHICLES: 1180
EDGE_WEIGHT_TYPE: EUC_2D
NODE_COORD_SECTION
1	0	0
2	80	386
3	521	652
4	597	936
5	836	69
6	503	987
7	618	169
8	115	662
9	312	175
10	78	83
11	364	317
12	12	454
13	980	537
14	403	383
15	144	443
16	739	464
17	886	511
18	904	106
19	794	539
20	821	608
21	781	347
22	336	490
23	101	736
24	365	68
25	618	684
26	282	286
27	311	806
28	557	793
29	54	50
30	651	264
31	619	661
32	156	994
33	950	369
34	183	707
35	673	856
36	5	651
37	867	449
38	946	914
39	75	82
40	522	8
41	573	493
42	833	699
43	881	677
44	201	77
45	536	593
46	67	895
47	99	113
48	120	133
49	428	231
50	701	845
51	190	508
52	431	218
53	626	782
54	113	914
55	569	117
56	865	639
57	708	9
58	511	977
59	104	838
60	229	467
61	956	568
62	431	929
63	615	707
64	913	42
65	854	504
66	236	176
67	377	404
68	380	468
69	590	752
70	620	146
71	616	746
72	675	114
73	556	640
74	99	777
75	12	194
76	920	116
77	846	384
78	525	23
79	199	348
80	813	875
81	757	593
82	573	358
83	264	448
84	132	556
85	289	765
86	246	267
87	245	876
88	235	592
89	648	790
90	378	754
91	636	653
92	555	181
93	738	446
94	130	836
95	882	942
96	102	787
97	669	905
98	490	45
99	883	547
100	971	638
101	256	227
102	775	935
103	489	411
104	826	228
105	514	866
106	129	566
107	7	118
108	415	820
109	161	160
110	27	21
111	695	395
112	64	937
113	121	847
114	770	896
115	264	607
116	174	871
117	20	546
118	986	803
119	379	259
120	728	180
121	686	273
122	133	869
123	157	499
124	784	186
125	649	934
126	999	236
127	670	615
128	978	479
129	646	823
130	193	565
131	440	534
132	26	411
133	114	126
134	661	528
135	946	326
136	223	602
137	695	420
138	172	317
139	116	701
140	940	438
141	732	172
142	824	136
143	837	507
144	125	570
145	773	241
146	542	708
147	441	235
148	808	413
149	68	374
150	582	768
151	220	519
152	593	651
153	71	712
154	26	569
155	918	629
156	165	731
157	941	282
158	285	379
159	227	977
160	788	366
161	33	507
162	597	983
163	299	617
164	799	35
165	414	697
166	529	178
167	235	743
168	118	484
169	349	554
170	477	280
171	591	189
172	743	221
173	807	670
174	163	621
175	874	932
176	245	24
177	960	27
178	139	44
179	45	584
180	281	434
181	684	501
182	284	414
183	20	905
184	80	256
185	57	354
186	306	107
187	167	289
188	952	66
189	862	741
190	240	516
191	806	277
192	782	700
193	82	208
194	951	550
195	710	44
196	537	764
197	407	191
198	629	133
199	608	911
200	760	125
201	727	517
202	295	706
203	679	836
204	73	420
205	637	903
206	297	723
207	55	920
208	676	550
209	933	456
210	812	155
211	326	903
212	846	181
213	116	175
214	344	992
215	28	667
216	439	245
217	891	450
218	224	732
219	156	734
220	390	441
221	663	560
222	115	896
223	655	766
224	210	731
225	42	176
226	505	517
227	923	66
228	490	844
229	342	859
230	210	644
231	313	79
232	399	775
233	79	559
234	876	843
235	631	889
236	182	284
237	471	120
DEMAND_SECTION
1	0
2	1
3	1
4	1
5	1
6	1
7	1
8	1
9	1
10	1
11	1
12	1
13	1
14	1
15	1
16	1
17	1
18	1
19	1
20	1
21	1
22	1
23	1
24	1
25	1
26	1
27	1
28	1
29	1
30	1
31	1
32	1
33	1
34	1
35	1
36	1
37	1
38	1
39	1
40	1
41	1
42	1
43	1
44	1
45	1
46	1
47	1
48	1
49	1
50	1
51	1
52	1
53	1
54	1
55	1
56	1
57	1
58	1
59	1
60	1
61	1
62	1
63	1
64	1
65	1
66	1
67	1
68	1
69	1
70	1
71	1
72	1
73	1
74	1
75	1
76	1
77	1
78	1
79	1
80	1
81	1
82	1
83	1
84	1
85	1
86	1
87	1
88	1
89	1
90	1
91	1
92	1
93	1
94	1
95	1
96	1
97	1
98	1
99	1
100	1
101	1
102	1
103	1
104	1
105	1
106	1
107	1
108	1
109	1
110	1
111	1
112	1
113	1
114	1
115	1
116	1
117	1
118	1
119	1
120	1
121	1
122	1
123	1
124	1
125	1
126	1
127	1
128	1
129	1
130	1
131	1
132	1
133	1
134	1
135	1
136	1
137	1
138	1
139	1
140	1
141	1
142	1
143	1
144	1
145	1
146	1
147	1
148	1
149	1
150	1
151	1
152	1
153	1
154	1
155	1
156	1
157	1
158	1
159	1
160	1
161	1
162	1
163	1
164	1
165	1
166	1
167	1
168	1
169	1
170	1
171	1
172	1
173	1
174	1
175	1
176	1
177	1
178	1
179	1
180	1
181	1
182	1
183	1
184	1
185	1
186	1
187	1
188	1
189	1
190	1
191	1
192	1
193	1
194	1
195	1
196	1
197	1
198	1
199	1
200	1
201	1
202	1
203	1
204	1
205	1
206	1
207	1
208	1
209	1
210	1
211	1
212	1
213	1
214	1
215	1
216	1
217	1
218	1
219	1
220	1
221	1
222	1
223	1
224	1
225	1
226	1
227	1
228	1
229	1
230	1
231	1
232	1
233	1
234	1
235	1
236	1
237	1
CAPACITY_SECTION
1	12
2	12
3	12
4	12
5	12
6	12
7	12
8	12
9	12
10	12
11	12
12	12
13	12
14	12
15	12
16	12
17	12
18	12
19	12
20	12
21	12
22	12
23	12
24	12
25	12
26	12
27	12
28	12
29	12
30	12
31	12
32	12
33	12
34	12
35	12
36	12
37	12
38	12
39	12
40	12
41	12
42	12
43	12
44	12
45	12
46	12
47	12
48	12
49	12
50	12
51	12
52	12
53	12
54	12
55	12
56	12
57	12
58	12
59	12
60	12
61	12
62	12
63	12
64	12
65	12
66	12
67	12
68	12
69	12
70	12
71	12
72	12
73	12
74	12
75	12
76	12
77	12
78	12
79	12
80	12
81	12
82	12
83	12
84	12
85	12
86	12
87	12
88	12
89	12
90	12
91	12
92	12
93	12
94	12
95	12
96	12
97	12
98	12
99	12
100	12
101	12
102	12
103	12
104	12
105	12
106	12
107	12
108	12
109	12
110	12
111	12
112	12
113	12
114	12
115	12
116	12
117	12
118	12
119	12
120	12
121	12
122	12
123	12
124	12
125	12
126	12
127	12
128	12
129	12
130	12
131	12
132	12
133	12
134	12
135	12
136	12
137	12
138	12
139	12
140	12
141	12
142	12
143	12
144	12
145	12
146	12
147	12
148	12
149	12
150	12
151	12
152	12
153	12
154	12
155	12
156	12
157	12
158	12
159	12
160	12
161	12
162	12
163	12
164	12
165	12
166	12
167	12
168	12
169	12
170	12
171	12
172	12
173	12
174	12
175	12
176	12
177	12
178	12
179	12
180	12
181	12
182	12
183	12
184	12
185	12
186	12
187	12
188	12
189	12
190	12
191	12
192	12
193	12
194	12
195	12
196	12
197	12
198	12
199	12
200	12
201	12
202	12
203	12
204	12
205	12
206	12
207	12
208	12
209	12
210	12
211	12
212	12
213	12
214	12
215	12
216	12
217	12
218	12
219	12
220	12
221	12
222	12
223	12
224	12
225	12
226	12
227	12
228	12
229	12
230	12
231	12
232	12
233	12
234	12
235	12
236	12
237	15
238	15
239	15
240	15
241	15
242	15
243	15
244	15
245	15
246	15
247	15
248	15
249	15
250	15
251	15
252	15
253	15
254	15
255	15
256	15
257	15
258	15
259	15
260	15
261	15
262	15
263	15
264	15
265	15
266	15
267	15
268	15
269	15
270	15
271	15
272	15
273	15
274	15
275	15
276	15
277	15
278	15
279	15
280	15
281	15
282	15
283	15
284	15
285	15
286	15
287	15
288	15
289	15
290	15
291	15
292	15
293	15
294	15
295	15
296	15
297	15
298	15
299	15
300	15
301	15
302	15
303	15
304	15
305	15
306	15
307	15
308	15
309	15
310	15
311	15
312	15
313	15
314	15
315	15
316	15
317	15
318	15
319	15
320	15
321	15
322	15
323	15
324	15
325	15
326	15
327	15
328	15
329	15
330	15
331	15
332	15
333	15
334	15
335	15
336	15
337	15
338	15
339	15
340	15
341	15
342	15
343	15
344	15
345	15
346	15
347	15
348	15
349	15
350	15
351	15
352	15
353	15
354	15
355	15
356	15
357	15
358	15
359	15
360	15
361	15
362	15
363	15
364	15
365	15
366	15
367	15
368	15
369	15
370	15
371	15
372	15
373	15
374	15
375	15
376	15
377	15
378	15
379	15
380	15
381	15
382	15
383	15
384	15
385	15
386	15
387	15
388	15
389	15
390	15
391	15
392	15
393	15
394	15
395	15
396	15
397	15
398	15
399	15
400	15
401	15
402	15
403	15
404	15
405	15
406	15
407	15
408	15
409	15
410	15
411	15
412	15
413	15
414	15
415	15
416	15
417	15
418	15
419	15
420	15
421	15
422	15
423	15
424	15
425	15
426	15
427	15
428	15
429	15
430	15
431	15
432	15
433	15
434	15
435	15
436	15
437	15
438	15
439	15
440	15
441	15
442	15
443	15
444	15
445	15
446	15
447	15
448	15
449	15
450	15
451	15
452	15
453	15
454	15
455	15
456	15
457	15
458	15
459	15
460	15
461	15
462	15
463	15
464	15
465	15
466	15
467	15
468	15
469	15
470	15
471	15
472	15
473	17
474	17
475	17
476	17
477	17
478	17
479	17
480	17
481	17
482	17
483	17
484	17
485	17
486	17
487	17
488	17
489	17
490	17
491	17
492	17
493	17
494	17
495	17
496	17
497	17
498	17
499	17
500	17
501	17
502	17
503	17
504	17
505	17
506	17
507	17
508	17
509	17
510	17
511	17
512	17
513	17
514	17
515	17
516	17
517	17
518	17
519	17
520	17
521	17
522	17
523	17
524	17
525	17
526	17
527	17
528	17
529	17
530	17
531	17
532	17
533	17
534	17
535	17
536	17
537	17
538	17
539	17
540	17
541	17
542	17
543	17
544	17
545	17
546	17
547	17
548	17
549	17
550	17
551	17
552	17
553	17
554	17
555	17
556	17
557	17
558	17
559	17
560	17
561	17
562	17
563	17
564	17
565	17
566	17
567	17
568	17
569	17
570	17
571	17
572	17
573	17
574	17
575	17
576	17
577	17
578	17
579	17
580	17
581	17
582	17
583	17
584	17
585	17
586	17
587	17
588	17
589	17
590	17
591	17
592	17
593	17
594	17
595	17
596	17
597	17
598	17
599	17
600	17
601	17
602	17
603	17
604	17
605	17
606	17
607	17
608	17
609	17
610	17
611	17
612	17
613	17
614	17
615	17
616	17
617	17
618	17
619	17
620	17
621	17
622	17
623	17
624	17
625	17
626	17
627	17
628	17
629	17
630	17
631	17
632	17
633	17
634	17
635	17
636	17
637	17
638	17
639	17
640	17
641	17
642	17
643	17
644	17
645	17
646	17
647	17
648	17
649	17
650	17
651	17
652	17
653	17
654	17
655	17
656	17
657	17
658	17
659	17
660	17
661	17
662	17
663	17
664	17
665	17
666	17
667	17
668	17
669	17
670	17
671	17
672	17
673	17
674	17
675	17
676	17
677	17
678	17
679	17
680	17
681	17
682	17
683	17
684	17
685	17
686	17
687	17
688	17
689	17
690	17
691	17
692	17
693	17
694	17
695	17
696	17
697	17
698	17
699	17
700	17
701	17
702	17
703	17
704	17
705	17
706	17
707	17
708	17
709	21
710	21
711	21
712	21
713	21
714	21
715	21
716	21
717	21
718	21
719	21
720	21
721	21
722	21
723	21
724	21
725	21
726	21
727	21
728	21
729	21
730	21
731	21
732	21
733	21
734	21
735	21
736	21
737	21
738	21
739	21
740	21
741	21
742	21
743	21
744	21
745	21
746	21
747	21
748	21
749	21
750	21
751	21
752	21
753	21
754	21
755	21
756	21
757	21
758	21
759	21
760	21
761	21
762	21
763	21
764	21
765	21
766	21
767	21
768	21
769	21
770	21
771	21
772	21
773	21
774	21
775	21
776	21
777	21
778	21
779	21
780	21
781	21
782	21
783	21
784	21
785	21
786	21
787	21
788	21
789	21
790	21
791	21
792	21
793	21
794	21
795	21
796	21
797	21
798	21
799	21
800	21
801	21
802	21
803	21
804	21
805	21
806	21
807	21
808	21
809	21
810	21
811	21
812	21
813	21
814	21
815	21
816	21
817	21
818	21
819	21
820	21
821	21
822	21
823	21
824	21
825	21
826	21
827	21
828	21
829	21
830	21
831	21
832	21
833	21
834	21
835	21
836	21
837	21
838	21
839	21
840	21
841	21
842	21
843	21
844	21
845	21
846	21
847	21
848	21
849	21
850	21
851	21
852	21
853	21
854	21
855	21
856	21
857	21
858	21
859	21
860	21
861	21
862	21
863	21
864	21
865	21
866	21
867	21
868	21
869	21
870	21
871	21
872	21
873	21
874	21
875	21
876	21
877	21
878	21
879	21
880	21
881	21
882	21
883	21
884	21
885	21
886	21
887	21
888	21
889	21
890	21
891	21
892	21
893	21
894	21
895	21
896	21
897	21
898	21
899	21
900	21
901	21
902	21
903	21
904	21
905	21
906	21
907	21
908	21
909	21
910	21
911	21
912	21
913	21
914	21
915	21
916	21
917	21
918	21
919	21
920	21
921	21
922	21
923	21
924	21
925	21
926	21
927	21
928	21
929	21
930	21
931	21
932	21
933	21
934	21
935	21
936	21
937	21
938	21
939	21
940	21
941	21
942	21
943	21
944	21
945	25
946	25
947	25
948	25
949	25
950	25
951	25
952	25
953	25
954	25
955	25
956	25
957	25
958	25
959	25
960	25
961	25
962	25
963	25
964	25
965	25
966	25
967	25
968	25
969	25
970	25
971	25
972	25
973	25
974	25
975	25
976	25
977	25
978	25
979	25
980	25
981	25
982	25
983	25
984	25
985	25
986	25
987	25
988	25
989	25
990	25
991	25
992	25
993	25
994	25
995	25
996	25
997	25
998	25
999	25
1000	25
1001	25
1002	25
1003	25
1004	25
1005	25
1006	25
1007	25
1008	25
1009	25
1010	25
1011	25
1012	25
1013	25
1014	25
1015	25
1016	25
1017	25
1018	25
1019	25
1020	25
1021	25
1022	25
1023	25
1024	25
1025	25
1026	25
1027	25
1028	25
1029	25
1030	25
1031	25
1032	25
1033	25
1034	25
1035	25
1036	25
1037	25
1038	25
1039	25
1040	25
1041	25
1042	25
1043	25
1044	25
1045	25
1046	25
1047	25
1048	25
1049	25
1050	25
1051	25
1052	25
1053	25
1054	25
1055	25
1056	25
1057	25
1058	25
1059	25
1060	25
1061	25
1062	25
1063	25
1064	25
1065	25
1066	25
1067	25
1068	25
1069	25
1070	25
1071	25
1072	25
1073	25
1074	25
1075	25
1076	25
1077	25
1078	25
1079	25
1080	25
1081	25
1082	25
1083	25
1084	25
1085	25
1086	25
1087	25
1088	25
1089	25
1090	25
1091	25
1092	25
1093	25
1094	25
1095	25
1096	25
1097	25
1098	25
1099	25
1100	25
1101	25
1102	25
1103	25
1104	25
1105	25
1106	25
1107	25
1108	25
1109	25
1110	25
1111	25
1112	25
1113	25
1114	25
1115	25
1116	25
1117	25
1118	25
1119	25
1120	25
1121	25
1122	25
1123	25
1124	25
1125	25
1126	25
1127	25
1128	25
1129	25
1130	25
1131	25
1132	25
1133	25
1134	25
1135	25
1136	25
1137	25
1138	25
1139	25
1140	25
1141	25
1142	25
1143	25
1144	25
1145	25
1146	25
1147	25
1148	25
1149	25
1150	25
1151	25
1152	25
1153	25
1154	25
1155	25
1156	25
1157	25
1158	25
1159	25
1160	25
1161	25
1162	25
1163	25
1164	25
1165	25
1166	25
1167	25
1168	25
1169	25
1170	25
1171	25
1172	25
1173	25
1174	25
1175	25
1176	25
1177	25
1178	25
1179	25
1180	25
VEHICLES_FIXED_COST_SECTION
1	43100
2	43100
3	43100
4	43100
5	43100
6	43100
7	43100
8	43100
9	43100
10	43100
11	43100
12	43100
13	43100
14	43100
15	43100
16	43100
17	43100
18	43100
19	43100
20	43100
21	43100
22	43100
23	43100
24	43100
25	43100
26	43100
27	43100
28	43100
29	43100
30	43100
31	43100
32	43100
33	43100
34	43100
35	43100
36	43100
37	43100
38	43100
39	43100
40	43100
41	43100
42	43100
43	43100
44	43100
45	43100
46	43100
47	43100
48	43100
49	43100
50	43100
51	43100
52	43100
53	43100
54	43100
55	43100
56	43100
57	43100
58	43100
59	43100
60	43100
61	43100
62	43100
63	43100
64	43100
65	43100
66	43100
67	43100
68	43100
69	43100
70	43100
71	43100
72	43100
73	43100
74	43100
75	43100
76	43100
77	43100
78	43100
79	43100
80	43100
81	43100
82	43100
83	43100
84	43100
85	43100
86	43100
87	43100
88	43100
89	43100
90	43100
91	43100
92	43100
93	43100
94	43100
95	43100
96	43100
97	43100
98	43100
99	43100
100	43100
101	43100
102	43100
103	43100
104	43100
105	43100
106	43100
107	43100
108	43100
109	43100
110	43100
111	43100
112	43100
113	43100
114	43100
115	43100
116	43100
117	43100
118	43100
119	43100
120	43100
121	43100
122	43100
123	43100
124	43100
125	43100
126	43100
127	43100
128	43100
129	43100
130	43100
131	43100
132	43100
133	43100
134	43100
135	43100
136	43100
137	43100
138	43100
139	43100
140	43100
141	43100
142	43100
143	43100
144	43100
145	43100
146	43100
147	43100
148	43100
149	43100
150	43100
151	43100
152	43100
153	43100
154	43100
155	43100
156	43100
157	43100
158	43100
159	43100
160	43100
161	43100
162	43100
163	43100
164	43100
165	43100
166	43100
167	43100
168	43100
169	43100
170	43100
171	43100
172	43100
173	43100
174	43100
175	43100
176	43100
177	43100
178	43100
179	43100
180	43100
181	43100
182	43100
183	43100
184	43100
185	43100
186	43100
187	43100
188	43100
189	43100
190	43100
191	43100
192	43100
193	43100
194	43100
195	43100
196	43100
197	43100
198	43100
199	43100
200	43100
201	43100
202	43100
203	43100
204	43100
205	43100
206	43100
207	43100
208	43100
209	43100
210	43100
211	43100
212	43100
213	43100
214	43100
215	43100
216	43100
217	43100
218	43100
219	43100
220	43100
221	43100
222	43100
223	43100
224	43100
225	43100
226	43100
227	43100
228	43100
229	43100
230	43100
231	43100
232	43100
233	43100
234	43100
235	43100
236	43100
237	53400
238	53400
239	53400
240	53400
241	53400
242	53400
243	53400
244	53400
245	53400
246	53400
247	53400
248	53400
249	53400
250	53400
251	53400
252	53400
253	53400
254	53400
255	53400
256	53400
257	53400
258	53400
259	53400
260	53400
261	53400
262	53400
263	53400
264	53400
265	53400
266	53400
267	53400
268	53400
269	53400
270	53400
271	53400
272	53400
273	53400
274	53400
275	53400
276	53400
277	53400
278	53400
279	53400
280	53400
281	53400
282	53400
283	53400
284	53400
285	53400
286	53400
287	53400
288	53400
289	53400
290	53400
291	53400
292	53400
293	53400
294	53400
295	53400
296	53400
297	53400
298	53400
299	53400
300	53400
301	53400
302	53400
303	53400
304	53400
305	53400
306	53400
307	53400
308	53400
309	53400
310	53400
311	53400
312	53400
313	53400
314	53400
315	53400
316	53400
317	53400
318	53400
319	53400
320	53400
321	53400
322	53400
323	53400
324	53400
325	53400
326	53400
327	53400
328	53400
329	53400
330	53400
331	53400
332	53400
333	53400
334	53400
335	53400
336	53400
337	53400
338	53400
339	53400
340	53400
341	53400
342	53400
343	53400
344	53400
345	53400
346	53400
347	53400
348	53400
349	53400
350	53400
351	53400
352	53400
353	53400
354	53400
355	53400
356	53400
357	53400
358	53400
359	53400
360	53400
361	53400
362	53400
363	53400
364	53400
365	53400
366	53400
367	53400
368	53400
369	53400
370	53400
371	53400
372	53400
373	53400
374	53400
375	53400
376	53400
377	53400
378	53400
379	53400
380	53400
381	53400
382	53400
383	53400
384	53400
385	53400
386	53400
387	53400
388	53400
389	53400
390	53400
391	53400
392	53400
393	53400
394	53400
395	53400
396	53400
397	53400
398	53400
399	53400
400	53400
401	53400
402	53400
403	53400
404	53400
405	53400
406	53400
407	53400
408	53400
409	53400
410	53400
411	53400
412	53400
413	53400
414	53400
415	53400
416	53400
417	53400
418	53400
419	53400
420	53400
421	53400
422	53400
423	53400
424	53400
425	53400
426	53400
427	53400
428	53400
429	53400
430	53400
431	53400
432	53400
433	53400
434	53400
435	53400
436	53400
437	53400
438	53400
439	53400
440	53400
441	53400
442	53400
443	53400
444	53400
445	53400
446	53400
447	53400
448	53400
449	53400
450	53400
451	53400
452	53400
453	53400
454	53400
455	53400
456	53400
457	53400
458	53400
459	53400
460	53400
461	53400
462	53400
463	53400
464	53400
465	53400
466	53400
467	53400
468	53400
469	53400
470	53400
471	53400
472	53400
473	66100
474	66100
475	66100
476	66100
477	66100
478	66100
479	66100
480	66100
481	66100
482	66100
483	66100
484	66100
485	66100
486	66100
487	66100
488	66100
489	66100
490	66100
491	66100
492	66100
493	66100
494	66100
495	66100
496	66100
497	66100
498	66100
499	66100
500	66100
501	66100
502	66100
503	66100
504	66100
505	66100
506	66100
507	66100
508	66100
509	66100
510	66100
511	66100
512	66100
513	66100
514	66100
515	66100
516	66100
517	66100
518	66100
519	66100
520	66100
521	66100
522	66100
523	66100
524	66100
525	66100
526	66100
527	66100
528	66100
529	66100
530	66100
531	66100
532	66100
533	66100
534	66100
535	66100
536	66100
537	66100
538	66100
539	66100
540	66100
541	66100
542	66100
543	66100
544	66100
545	66100
546	66100
547	66100
548	66100
549	66100
550	66100
551	66100
552	66100
553	66100
554	66100
555	66100
556	66100
557	66100
558	66100
559	66100
560	66100
561	66100
562	66100
563	66100
564	66100
565	66100
566	66100
567	66100
568	66100
569	66100
570	66100
571	66100
572	66100
573	66100
574	66100
575	66100
576	66100
577	66100
578	66100
579	66100
580	66100
581	66100
582	66100
583	66100
584	66100
585	66100
586	66100
587	66100
588	66100
589	66100
590	66100
591	66100
592	66100
593	66100
594	66100
595	66100
596	66100
597	66100
598	66100
599	66100
600	66100
601	66100
602	66100
603	66100
604	66100
605	66100
606	66100
607	66100
608	66100
609	66100
610	66100
611	66100
612	66100
613	66100
614	66100
615	66100
616	66100
617	66100
618	66100
619	66100
620	66100
621	66100
622	66100
623	66100
624	66100
625	66100
626	66100
627	66100
628	66100
629	66100
630	66100
631	66100
632	66100
633	66100
634	66100
635	66100
636	66100
637	66100
638	66100
639	66100
640	66100
641	66100
642	66100
643	66100
644	66100
645	66100
646	66100
647	66100
648	66100
649	66100
650	66100
651	66100
652	66100
653	66100
654	66100
655	66100
656	66100
657	66100
658	66100
659	66100
660	66100
661	66100
662	66100
663	66100
664	66100
665	66100
666	66100
667	66100
668	66100
669	66100
670	66100
671	66100
672	66100
673	66100
674	66100
675	66100
676	66100
677	66100
678	66100
679	66100
680	66100
681	66100
682	66100
683	66100
684	66100
685	66100
686	66100
687	66100
688	66100
689	66100
690	66100
691	66100
692	66100
693	66100
694	66100
695	66100
696	66100
697	66100
698	66100
699	66100
700	66100
701	66100
702	66100
703	66100
704	66100
705	66100
706	66100
707	66100
708	66100
709	81600
710	81600
711	81600
712	81600
713	81600
714	81600
715	81600
716	81600
717	81600
718	81600
719	81600
720	81600
721	81600
722	81600
723	81600
724	81600
725	81600
726	81600
727	81600
728	81600
729	81600
730	81600
731	81600
732	81600
733	81600
734	81600
735	81600
736	81600
737	81600
738	81600
739	81600
740	81600
741	81600
742	81600
743	81600
744	81600
745	81600
746	81600
747	81600
748	81600
749	81600
750	81600
751	81600
752	81600
753	81600
754	81600
755	81600
756	81600
757	81600
758	81600
759	81600
760	81600
761	81600
762	81600
763	81600
764	81600
765	81600
766	81600
767	81600
768	81600
769	81600
770	81600
771	81600
772	81600
773	81600
774	81600
775	81600
776	81600
777	81600
778	81600
779	81600
780	81600
781	81600
782	81600
783	81600
784	81600
785	81600
786	81600
787	81600
788	81600
789	81600
790	81600
791	81600
792	81600
793	81600
794	81600
795	81600
796	81600
797	81600
798	81600
799	81600
800	81600
801	81600
802	81600
803	81600
804	81600
805	81600
806	81600
807	81600
808	81600
809	81600
810	81600
811	81600
812	81600
813	81600
814	81600
815	81600
816	81600
817	81600
818	81600
819	81600
820	81600
821	81600
822	81600
823	81600
824	81600
825	81600
826	81600
827	81600
828	81600
829	81600
830	81600
831	81600
832	81600
833	81600
834	81600
835	81600
836	81600
837	81600
838	81600
839	81600
840	81600
841	81600
842	81600
843	81600
844	81600
845	81600
846	81600
847	81600
848	81600
849	81600
850	81600
851	81600
852	81600
853	81600
854	81600
855	81600
856	81600
857	81600
858	81600
859	81600
860	81600
861	81600
862	81600
863	81600
864	81600
865	81600
866	81600
867	81600
868	81600
869	81600
870	81600
871	81600
872	81600
873	81600
874	81600
875	81600
876	81600
877	81600
878	81600
879	81600
880	81600
881	81600
882	81600
883	81600
884	81600
885	81600
886	81600
887	81600
888	81600
889	81600
890	81600
891	81600
892	81600
893	81600
894	81600
895	81600
896	81600
897	81600
898	81600
899	81600
900	81600
901	81600
902	81600
903	81600
904	81600
905	81600
906	81600
907	81600
908	81600
909	81600
910	81600
911	81600
912	81600
913	81600
914	81600
915	81600
916	81600
917	81600
918	81600
919	81600
920	81600
921	81600
922	81600
923	81600
924	81600
925	81600
926	81600
927	81600
928	81600
929	81600
930	81600
931	81600
932	81600
933	81600
934	81600
935	81600
936	81600
937	81600
938	81600
939	81600
940	81600
941	81600
942	81600
943	81600
944	81600
945	100600
946	100600
947	100600
948	100600
949	100600
950	100600
951	100600
952	100600
953	100600
954	100600
955	100600
956	100600
957	100600
958	100600
959	100600
960	100600
961	100600
962	100600
963	100600
964	100600
965	100600
966	100600
967	100600
968	100600
969	100600
970	100600
971	100600
972	100600
973	100600
974	100600
975	100600
976	100600
977	100600
978	100600
979	100600
980	100600
981	100600
982	100600
983	100600
984	100600
985	100600
986	100600
987	100600
988	100600
989	100600
990	100600
991	100600
992	100600
993	100600
994	100600
995	100600
996	100600
997	100600
998	100600
999	100600
1000	100600
1001	100600
1002	100600
1003	100600
1004	100600
1005	100600
1006	100600
1007	100600
1008	100600
1009	100600
1010	100600
1011	100600
1012	100600
1013	100600
1014	100600
1015	100600
1016	100600
1017	100600
1018	100600
1019	100600
1020	100600
1021	100600
1022	100600
1023	100600
1024	100600
1025	100600
1026	100600
1027	100600
1028	100600
1029	100600
1030	100600
1031	100600
1032	100600
1033	100600
1034	100600
1035	100600
1036	100600
1037	100600
1038	100600
1039	100600
1040	100600
1041	100600
1042	100600
1043	100600
1044	100600
1045	100600
1046	100600
1047	100600
1048	100600
1049	100600
1050	100600
1051	100600
1052	100600
1053	100600
1054	100600
1055	100600
1056	100600
1057	100600
1058	100600
1059	100600
1060	100600
1061	100600
1062	100600
1063	100600
1064	100600
1065	100600
1066	100600
1067	100600
1068	100600
1069	100600
1070	100600
1071	100600
1072	100600
1073	100600
1074	100600
1075	100600
1076	100600
1077	100600
1078	100600
1079	100600
1080	100600
1081	100600
1082	100600
1083	100600
1084	100600
1085	100600
1086	100600
1087	100600
1088	100600
1089	100600
1090	100600
1091	100600
1092	100600
1093	100600
1094	100600
1095	100600
1096	100600
1097	100600
1098	100600
1099	100600
1100	100600
1101	100600
1102	100600
1103	100600
1104	100600
1105	100600
1106	100600
1107	100600
1108	100600
1109	100600
1110	100600
1111	100600
1112	100600
1113	100600
1114	100600
1115	100600
1116	100600
1117	100600
1118	100600
1119	100600
1120	100600
1121	100600
1122	100600
1123	100600
1124	100600
1125	100600
1126	100600
1127	100600
1128	100600
1129	100600
1130	100600
1131	100600
1132	100600
1133	100600
1134	100600
1135	100600
1136	100600
1137	100600
1138	100600
1139	100600
1140	100600
1141	100600
1142	100600
1143	100600
1144	100600
1145	100600
1146	100600
1147	100600
1148	100600
1149	100600
1150	100600
1151	100600
1152	100600
1153	100600
1154	100600
1155	100600
1156	100600
1157	100600
1158	100600
1159	100600
1160	100600
1161	100600
1162	100600
1163	100600
1164	100600
1165	100600
1166	100600
1167	100600
1168	100600
1169	100600
1170	100600
1171	100600
1172	100600
1173	100600
1174	100600
1175	100600
1176	100600
1177	100600
1178	100600
1179	100600
1180	100600
VEHICLES_UNIT_DISTANCE_COST_SECTION
1	100
2	100
3	100
4	100
5	100
6	100
7	100
8	100
9	100
10	100
11	100
12	100
13	100
14	100
15	100
16	100
17	100
18	100
19	100
20	100
21	100
22	100
23	100
24	100
25	100
26	100
27	100
28	100
29	100
30	100
31	100
32	100
33	100
34	100
35	100
36	100
37	100
38	100
39	100
40	100
41	100
42	100
43	100
44	100
45	100
46	100
47	100
48	100
49	100
50	100
51	100
52	100
53	100
54	100
55	100
56	100
57	100
58	100
59	100
60	100
61	100
62	100
63	100
64	100
65	100
66	100
67	100
68	100
69	100
70	100
71	100
72	100
73	100
74	100
75	100
76	100
77	100
78	100
79	100
80	100
81	100
82	100
83	100
84	100
85	100
86	100
87	100
88	100
89	100
90	100
91	100
92	100
93	100
94	100
95	100
96	100
97	100
98	100
99	100
100	100
101	100
102	100
103	100
104	100
105	100
106	100
107	100
108	100
109	100
110	100
111	100
112	100
113	100
114	100
115	100
116	100
117	100
118	100
119	100
120	100
121	100
122	100
123	100
124	100
125	100
126	100
127	100
128	100
129	100
130	100
131	100
132	100
133	100
134	100
135	100
136	100
137	100
138	100
139	100
140	100
141	100
142	100
143	100
144	100
145	100
146	100
147	100
148	100
149	100
150	100
151	100
152	100
153	100
154	100
155	100
156	100
157	100
158	100
159	100
160	100
161	100
162	100
163	100
164	100
165	100
166	100
167	100
168	100
169	100
170	100
171	100
172	100
173	100
174	100
175	100
176	100
177	100
178	100
179	100
180	100
181	100
182	100
183	100
184	100
185	100
186	100
187	100
188	100
189	100
190	100
191	100
192	100
193	100
194	100
195	100
196	100
197	100
198	100
199	100
200	100
201	100
202	100
203	100
204	100
205	100
206	100
207	100
208	100
209	100
210	100
211	100
212	100
213	100
214	100
215	100
216	100
217	100
218	100
219	100
220	100
221	100
222	100
223	100
224	100
225	100
226	100
227	100
228	100
229	100
230	100
231	100
232	100
233	100
234	100
235	100
236	100
237	100
238	100
239	100
240	100
241	100
242	100
243	100
244	100
245	100
246	100
247	100
248	100
249	100
250	100
251	100
252	100
253	100
254	100
255	100
256	100
257	100
258	100
259	100
260	100
261	100
262	100
263	100
264	100
265	100
266	100
267	100
268	100
269	100
270	100
271	100
272	100
273	100
274	100
275	100
276	100
277	100
278	100
279	100
280	100
281	100
282	100
283	100
284	100
285	100
286	100
287	100
288	100
289	100
290	100
291	100
292	100
293	100
294	100
295	100
296	100
297	100
298	100
299	100
300	100
301	100
302	100
303	100
304	100
305	100
306	100
307	100
308	100
309	100
310	100
311	100
312	100
313	100
314	100
315	100
316	100
317	100
318	100
319	100
320	100
321	100
322	100
323	100
324	100
325	100
326	100
327	100
328	100
329	100
330	100
331	100
332	100
333	100
334	100
335	100
336	100
337	100
338	100
339	100
340	100
341	100
342	100
343	100
344	100
345	100
346	100
347	100
348	100
349	100
350	100
351	100
352	100
353	100
354	100
355	100
356	100
357	100
358	100
359	100
360	100
361	100
362	100
363	100
364	100
365	100
366	100
367	100
368	100
369	100
370	100
371	100
372	100
373	100
374	100
375	100
376	100
377	100
378	100
379	100
380	100
381	100
382	100
383	100
384	100
385	100
386	100
387	100
388	100
389	100
390	100
391	100
392	100
393	100
394	100
395	100
396	100
397	100
398	100
399	100
400	100
401	100
402	100
403	100
404	100
405	100
406	100
407	100
408	100
409	100
410	100
411	100
412	100
413	100
414	100
415	100
416	100
417	100
418	100
419	100
420	100
421	100
422	100
423	100
424	100
425	100
426	100
427	100
428	100
429	100
430	100
431	100
432	100
433	100
434	100
435	100
436	100
437	100
438	100
439	100
440	100
441	100
442	100
443	100
444	100
445	100
446	100
447	100
448	100
449	100
450	100
451	100
452	100
453	100
454	100
455	100
456	100
457	100
458	100
459	100
460	100
461	100
462	100
463	100
464	100
465	100
466	100
467	100
468	100
469	100
470	100
471	100
472	100
473	100
474	100
475	100
476	100
477	100
478	100
479	100
480	100
481	100
482	100
483	100
484	100
485	100
486	100
487	100
488	100
489	100
490	100
491	100
492	100
493	100
494	100
495	100
496	100
497	100
498	100
499	100
500	100
501	100
502	100
503	100
504	100
505	100
506	100
507	100
508	100
509	100
510	100
511	100
512	100
513	100
514	100
515	100
516	100
517	100
518	100
519	100
520	100
521	100
522	100
523	100
524	100
525	100
526	100
527	100
528	100
529	100
530	100
531	100
532	100
533	100
534	100
535	100
536	100
537	100
538	100
539	100
540	100
541	100
542	100
543	100
544	100
545	100
546	100
547	100
548	100
549	100
550	100
551	100
552	100
553	100
554	100
555	100
556	100
557	100
558	100
559	100
560	100
561	100
562	100
563	100
564	100
565	100
566	100
567	100
568	100
569	100
570	100
571	100
572	100
573	100
574	100
575	100
576	100
577	100
578	100
579	100
580	100
581	100
582	100
583	100
584	100
585	100
586	100
587	100
588	100
589	100
590	100
591	100
592	100
593	100
594	100
595	100
596	100
597	100
598	100
599	100
600	100
601	100
602	100
603	100
604	100
605	100
606	100
607	100
608	100
609	100
610	100
611	100
612	100
613	100
614	100
615	100
616	100
617	100
618	100
619	100
620	100
621	100
622	100
623	100
624	100
625	100
626	100
627	100
628	100
629	100
630	100
631	100
632	100
633	100
634	100
635	100
636	100
637	100
638	100
639	100
640	100
641	100
642	100
643	100
644	100
645	100
646	100
647	100
648	100
649	100
650	100
651	100
652	100
653	100
654	100
655	100
656	100
657	100
658	100
659	100
660	100
661	100
662	100
663	100
664	100
665	100
666	100
667	100
668	100
669	100
670	100
671	100
672	100
673	100
674	100
675	100
676	100
677	100
678	100
679	100
680	100
681	100
682	100
683	100
684	100
685	100
686	100
687	100
688	100
689	100
690	100
691	100
692	100
693	100
694	100
695	100
696	100
697	100
698	100
699	100
700	100
701	100
702	100
703	100
704	100
705	100
706	100
707	100
708	100
709	100
710	100
711	100
712	100
713	100
714	100
715	100
716	100
717	100
718	100
719	100
720	100
721	100
722	100
723	100
724	100
725	100
726	100
727	100
728	100
729	100
730	100
731	100
732	100
733	100
734	100
735	100
736	100
737	100
738	100
739	100
740	100
741	100
742	100
743	100
744	100
745	100
746	100
747	100
748	100
749	100
750	100
751	100
752	100
753	100
754	100
755	100
756	100
757	100
758	100
759	100
760	100
761	100
762	100
763	100
764	100
765	100
766	100
767	100
768	100
769	100
770	100
771	100
772	100
773	100
774	100
775	100
776	100
777	100
778	100
779	100
780	100
781	100
782	100
783	100
784	100
785	100
786	100
787	100
788	100
789	100
790	100
791	100
792	100
793	100
794	100
795	100
796	100
797	100
798	100
799	100
800	100
801	100
802	100
803	100
804	100
805	100
806	100
807	100
808	100
809	100
810	100
811	100
812	100
813	100
814	100
815	100
816	100
817	100
818	100
819	100
820	100
821	100
822	100
823	100
824	100
825	100
826	100
827	100
828	100
829	100
830	100
831	100
832	100
833	100
834	100
835	100
836	100
837	100
838	100
839	100
840	100
841	100
842	100
843	100
844	100
845	100
846	100
847	100
848	100
849	100
850	100
851	100
852	100
853	100
854	100
855	100
856	100
857	100
858	100
859	100
860	100
861	100
862	100
863	100
864	100
865	100
866	100
867	100
868	100
869	100
870	100
871	100
872	100
873	100
874	100
875	100
876	100
877	100
878	100
879	100
880	100
881	100
882	100
883	100
884	100
885	100
886	100
887	100
888	100
889	100
890	100
891	100
892	100
893	100
894	100
895	100
896	100
897	100
898	100
899	100
900	100
901	100
902	100
903	100
904	100
905	100
906	100
907	100
908	100
909	100
910	100
911	100
912	100
913	100
914	100
915	100
916	100
917	100
918	100
919	100
920	100
921	100
922	100
923	100
924	100
925	100
926	100
927	100
928	100
929	100
930	100
931	100
932	100
933	100
934	100
935	100
936	100
937	100
938	100
939	100
940	100
941	100
942	100
943	100
944	100
945	100
946	100
947	100
948	100
949	100
950	100
951	100
952	100
953	100
954	100
955	100
956	100
957	100
958	100
959	100
960	100
961	100
962	100
963	100
964	100
965	100
966	100
967	100
968	100
969	100
970	100
971	100
972	100
973	100
974	100
975	100
976	100
977	100
978	100
979	100
980	100
981	100
982	100
983	100
984	100
985	100
986	100
987	100
988	100
989	100
990	100
991	100
992	100
993	100
994	100
995	100
996	100
997	100
998	100
999	100
1000	100
1001	100
1002	100
1003	100
1004	100
1005	100
1006	100
1007	100
1008	100
1009	100
1010	100
1011	100
1012	100
1013	100
1014	100
1015	100
1016	100
1017	100
1018	100
1019	100
1020	100
1021	100
1022	100
1023	100
1024	100
1025	100
1026	100
1027	100
1028	100
1029	100
1030	100
1031	100
1032	100
1033	100
1034	100
1035	100
1036	100
1037	100
1038	100
1039	100
1040	100
1041	100
1042	100
1043	100
1044	100
1045	100
1046	100
1047	100
1048	100
1049	100
1050	100
1051	100
1052	100
1053	100
1054	100
1055	100
1056	100
1057	100
1058	100
1059	100
1060	100
1061	100
1062	100
1063	100
1064	100
1065	100
1066	100
1067	100
1068	100
1069	100
1070	100
1071	100
1072	100
1073	100
1074	100
1075	100
1076	100
1077	100
1078	100
1079	100
1080	100
1081	100
1082	100
1083	100
1084	100
1085	100
1086	100
1087	100
1088	100
1089	100
1090	100
1091	100
1092	100
1093	100
1094	100
1095	100
1096	100
1097	100
1098	100
1099	100
1100	100
1101	100
1102	100
1103	100
1104	100
1105	100
1106	100
1107	100
1108	100
1109	100
1110	100
1111	100
1112	100
1113	100
1114	100
1115	100
1116	100
1117	100
1118	100
1119	100
1120	100
1121	100
1122	100
1123	100
1124	100
1125	100
1126	100
1127	100
1128	100
1129	100
1130	100
1131	100
1132	100
1133	100
1134	100
1135	100
1136	100
1137	100
1138	100
1139	100
1140	100
1141	100
1142	100
1143	100
1144	100
1145	100
1146	100
1147	100
1148	100
1149	100
1150	100
1151	100
1152	100
1153	100
1154	100
1155	100
1156	100
1157	100
1158	100
1159	100
1160	100
1161	100
1162	100
1163	100
1164	100
1165	100
1166	100
1167	100
1168	100
1169	100
1170	100
1171	100
1172	100
1173	100
1174	100
1175	100
1176	100
1177	100
1178	100
1179	100
1180	100
DEPOT_SECTION
1
EOF
